Minimize
	value: tt

Subject to
tt + 2000 s_1_1 > 0
tt - t_1_1 - 2001.223231 s_1_1 + 1.223231 s_1_6 > -1999.321589
tt + 2000 s_2_1 > 0
tt - t_2_1 - 2002.446462 s_2_1 + 2.446462 s_2_6 > -1997.268974
tt + 2000 s_1_2 > 0
tt - t_1_2 - 2001.223231 s_1_2 + 1.223231 s_1_7 > -1999.196778
tt + 2000 s_2_2 > 0
tt - t_2_2 - 2002.446462 s_2_2 + 2.446462 s_2_7 > -1997.248712
tt + 2000 s_1_3 > 0
tt - t_1_3 - 2001.223231 s_1_3 + 1.223231 s_1_7 > -1998.986197
tt + 2000 s_2_3 > 0
tt - t_2_3 - 2002.446462 s_2_3 + 2.446462 s_2_7 > -1996.233802
tt + 2000 s_1_4 > 0
tt - t_1_4 - 2007.339385 s_1_4 + 7.339385 s_1_3 > -1999.437300
tt + 2000 s_2_4 > 0
tt - t_2_4 - 2014.678769 s_2_4 + 14.678769 s_2_3 > -1997.274772
tt + 2000 s_1_5 > 0
tt - t_1_5 - 2004.892923 s_1_5 + 4.892923 s_1_7 > -1999.493022
tt + 2000 s_2_5 > 0
tt - t_2_5 - 2009.785846 s_2_5 + 9.785846 s_2_7 > -1997.810923
tt + 2000 s_1_6 > 0
tt - t_1_6 - 2000.000000 s_1_6 > -1997.760194
tt + 2000 s_2_6 > 0
tt - t_2_6 - 2000.000000 s_2_6 > -1991.176869
tt + 2000 s_1_7 > 0
tt - t_1_7 - 2000.000000 s_1_7 > -1998.955389
tt + 2000 s_2_7 > 0
tt - t_2_7 - 2000.000000 s_2_7 > -1997.639619
tt + 2000 s_1_8 > 0
tt - t_1_8 - 2055.045385 s_1_8 + 55.045385 s_1_1 > -1999.839700
tt + 2000 s_2_8 > 0
tt - t_2_8 - 2110.090769 s_2_8 + 110.090769 s_2_1 > -1998.165800
s_1_1 + s_2_1  = 1
s_1_2 + s_2_2  = 1
s_1_3 + s_2_3  = 1
s_1_4 + s_2_4  = 1
s_1_5 + s_2_5  = 1
s_1_6 + s_2_6  = 1
s_1_7 + s_2_7  = 1
s_1_8 + s_2_8  = 1
t_1_1 - t_1_2 + 2000.000000 u_1_1_2 - 1.223231 s_1_2 + 1.223231 s_1_7 > 0.803222
t_1_2 - t_1_1 - 2000.000000 u_1_1_2 > -1999.321589
t_2_1 - t_2_2 + 2000.000000 u_2_1_2 - 2.446462 s_2_2 + 2.446462 s_2_7 > 2.751288
t_2_2 - t_2_1 - 2000.000000 u_2_1_2 > -1997.268974
t_1_1 - t_1_3 + 2000.000000 u_1_1_3 - 1.223231 s_1_3 + 1.223231 s_1_7 > 1.013803
t_1_3 - t_1_1 - 2000.000000 u_1_1_3 > -1999.321589
t_2_1 - t_2_3 + 2000.000000 u_2_1_3 - 2.446462 s_2_3 + 2.446462 s_2_7 > 3.766198
t_2_3 - t_2_1 - 2000.000000 u_2_1_3 > -1997.268974
t_1_1 - t_1_4 + 2000.000000 u_1_1_4 - 3.669692 s_1_4 + 3.669692 s_1_3 > 0.562700
t_1_4 - t_1_1 - 2000.000000 u_1_1_4 > -1999.321589
t_2_1 - t_2_4 + 2000.000000 u_2_1_4 - 7.339385 s_2_4 + 7.339385 s_2_3 > 2.725228
t_2_4 - t_2_1 - 2000.000000 u_2_1_4 > -1997.268974
t_1_1 - t_1_5 + 2000.000000 u_1_1_5 - 2.446462 s_1_5 + 2.446462 s_1_7 > 0.506978
t_1_5 - t_1_1 - 2000.000000 u_1_1_5 > -1999.321589
t_2_1 - t_2_5 + 2000.000000 u_2_1_5 - 4.892923 s_2_5 + 4.892923 s_2_7 > 2.189077
t_2_5 - t_2_1 - 2000.000000 u_2_1_5 > -1997.268974
t_1_1 - t_1_6 - 2000.000000 s_1_6 > -1990.396459
t_1_1 - t_2_6 - 2000.000000 s_2_6 > -1976.449398
t_2_1 - t_1_6 - 2000.000000 s_1_6 > -1990.396459
t_2_1 - t_2_6 - 2000.000000 s_2_6 > -1976.449398
t_1_1 - t_1_7 + 2000.000000 u_1_1_7 > 1.044611
t_1_7 - t_1_1 - 2000.000000 u_1_1_7 > -1999.321589
t_2_1 - t_2_7 + 2000.000000 u_2_1_7 > 2.360381
t_2_7 - t_2_1 - 2000.000000 u_2_1_7 > -1997.268974
t_1_8 - t_1_1 - 2000.000000 s_1_1 > -1998.098358
t_1_8 - t_2_1 - 2000.000000 s_2_1 > -1994.822513
t_2_8 - t_1_1 - 2000.000000 s_1_1 > -1998.098358
t_2_8 - t_2_1 - 2000.000000 s_2_1 > -1994.822513
t_1_2 - t_1_1 + 2000.000000 u_1_2_1 - 1.223231 s_1_1 + 1.223231 s_1_6 > 0.678411
t_1_1 - t_1_2 - 2000.000000 u_1_2_1 > -1999.196778
t_2_2 - t_2_1 + 2000.000000 u_2_2_1 - 2.446462 s_2_1 + 2.446462 s_2_6 > 2.731026
t_2_1 - t_2_2 - 2000.000000 u_2_2_1 > -1997.248712
t_1_2 - t_1_3 + 2000.000000 u_1_2_3 - 1.223231 s_1_3 + 1.223231 s_1_7 > 1.013803
t_1_3 - t_1_2 - 2000.000000 u_1_2_3 > -1999.196778
t_2_2 - t_2_3 + 2000.000000 u_2_2_3 - 2.446462 s_2_3 + 2.446462 s_2_7 > 3.766198
t_2_3 - t_2_2 - 2000.000000 u_2_2_3 > -1997.248712
t_1_2 - t_1_4 + 2000.000000 u_1_2_4 - 3.669692 s_1_4 + 3.669692 s_1_3 > 0.562700
t_1_4 - t_1_2 - 2000.000000 u_1_2_4 > -1999.196778
t_2_2 - t_2_4 + 2000.000000 u_2_2_4 - 7.339385 s_2_4 + 7.339385 s_2_3 > 2.725228
t_2_4 - t_2_2 - 2000.000000 u_2_2_4 > -1997.248712
t_1_2 - t_1_5 + 2000.000000 u_1_2_5 - 2.446462 s_1_5 + 2.446462 s_1_7 > 0.506978
t_1_5 - t_1_2 - 2000.000000 u_1_2_5 > -1999.196778
t_2_2 - t_2_5 + 2000.000000 u_2_2_5 - 4.892923 s_2_5 + 4.892923 s_2_7 > 2.189077
t_2_5 - t_2_2 - 2000.000000 u_2_2_5 > -1997.248712
t_1_2 - t_1_6 + 2000.000000 u_1_2_6 > 2.239806
t_1_6 - t_1_2 - 2000.000000 u_1_2_6 > -1999.196778
t_2_2 - t_2_6 + 2000.000000 u_2_2_6 > 8.823131
t_2_6 - t_2_2 - 2000.000000 u_2_2_6 > -1997.248712
t_1_2 - t_1_7 - 2000.000000 s_1_7 > -1992.839235
t_1_2 - t_2_7 - 2000.000000 s_2_7 > -1985.407312
t_2_2 - t_1_7 - 2000.000000 s_1_7 > -1992.839235
t_2_2 - t_2_7 - 2000.000000 s_2_7 > -1985.407312
t_1_8 - t_1_2 - 2000.000000 s_1_2 > -1997.973547
t_1_8 - t_2_2 - 2000.000000 s_2_2 > -1994.802250
t_2_8 - t_1_2 - 2000.000000 s_1_2 > -1997.973547
t_2_8 - t_2_2 - 2000.000000 s_2_2 > -1994.802250
t_1_3 - t_1_1 + 2000.000000 u_1_3_1 - 1.223231 s_1_1 + 1.223231 s_1_6 > 0.678411
t_1_1 - t_1_3 - 2000.000000 u_1_3_1 > -1998.986197
t_2_3 - t_2_1 + 2000.000000 u_2_3_1 - 2.446462 s_2_1 + 2.446462 s_2_6 > 2.731026
t_2_1 - t_2_3 - 2000.000000 u_2_3_1 > -1996.233802
t_1_3 - t_1_2 + 2000.000000 u_1_3_2 - 1.223231 s_1_2 + 1.223231 s_1_7 > 0.803222
t_1_2 - t_1_3 - 2000.000000 u_1_3_2 > -1998.986197
t_2_3 - t_2_2 + 2000.000000 u_2_3_2 - 2.446462 s_2_2 + 2.446462 s_2_7 > 2.751288
t_2_2 - t_2_3 - 2000.000000 u_2_3_2 > -1996.233802
t_1_4 - t_1_3 - 2000.000000 s_1_3 > -1997.762966
t_1_4 - t_2_3 - 2000.000000 s_2_3 > -1993.787341
t_2_4 - t_1_3 - 2000.000000 s_1_3 > -1997.762966
t_2_4 - t_2_3 - 2000.000000 s_2_3 > -1993.787341
t_1_3 - t_1_5 + 2000.000000 u_1_3_5 - 2.446462 s_1_5 + 2.446462 s_1_7 > 0.506978
t_1_5 - t_1_3 - 2000.000000 u_1_3_5 > -1998.986197
t_2_3 - t_2_5 + 2000.000000 u_2_3_5 - 4.892923 s_2_5 + 4.892923 s_2_7 > 2.189077
t_2_5 - t_2_3 - 2000.000000 u_2_3_5 > -1996.233802
t_1_3 - t_1_6 + 2000.000000 u_1_3_6 > 2.239806
t_1_6 - t_1_3 - 2000.000000 u_1_3_6 > -1998.986197
t_2_3 - t_2_6 + 2000.000000 u_2_3_6 > 8.823131
t_2_6 - t_2_3 - 2000.000000 u_2_3_6 > -1996.233802
t_1_3 - t_1_7 - 2000.000000 s_1_7 > -1992.839235
t_1_3 - t_2_7 - 2000.000000 s_2_7 > -1985.407312
t_2_3 - t_1_7 - 2000.000000 s_1_7 > -1992.839235
t_2_3 - t_2_7 - 2000.000000 s_2_7 > -1985.407312
t_1_8 - t_1_3 - 2000.000000 s_1_3 > -1997.762966
t_1_8 - t_2_3 - 2000.000000 s_2_3 > -1993.787341
t_2_8 - t_1_3 - 2000.000000 s_1_3 > -1997.762966
t_2_8 - t_2_3 - 2000.000000 s_2_3 > -1993.787341
t_1_4 - t_1_1 + 2000.000000 u_1_4_1 - 1.223231 s_1_1 + 1.223231 s_1_6 > 0.678411
t_1_1 - t_1_4 - 2000.000000 u_1_4_1 > -1999.437300
t_2_4 - t_2_1 + 2000.000000 u_2_4_1 - 2.446462 s_2_1 + 2.446462 s_2_6 > 2.731026
t_2_1 - t_2_4 - 2000.000000 u_2_4_1 > -1997.274772
t_1_4 - t_1_2 + 2000.000000 u_1_4_2 - 1.223231 s_1_2 + 1.223231 s_1_7 > 0.803222
t_1_2 - t_1_4 - 2000.000000 u_1_4_2 > -1999.437300
t_2_4 - t_2_2 + 2000.000000 u_2_4_2 - 2.446462 s_2_2 + 2.446462 s_2_7 > 2.751288
t_2_2 - t_2_4 - 2000.000000 u_2_4_2 > -1997.274772
t_1_4 - t_1_3 - 2000.000000 s_1_3 > -1997.762966
t_1_4 - t_2_3 - 2000.000000 s_2_3 > -1993.787341
t_2_4 - t_1_3 - 2000.000000 s_1_3 > -1997.762966
t_2_4 - t_2_3 - 2000.000000 s_2_3 > -1993.787341
t_1_4 - t_1_5 + 2000.000000 u_1_4_5 - 2.446462 s_1_5 + 2.446462 s_1_7 > 0.506978
t_1_5 - t_1_4 - 2000.000000 u_1_4_5 > -1999.437300
t_2_4 - t_2_5 + 2000.000000 u_2_4_5 - 4.892923 s_2_5 + 4.892923 s_2_7 > 2.189077
t_2_5 - t_2_4 - 2000.000000 u_2_4_5 > -1997.274772
t_1_4 - t_1_6 + 2000.000000 u_1_4_6 > 2.239806
t_1_6 - t_1_4 - 2000.000000 u_1_4_6 > -1999.437300
t_2_4 - t_2_6 + 2000.000000 u_2_4_6 > 8.823131
t_2_6 - t_2_4 - 2000.000000 u_2_4_6 > -1997.274772
t_1_4 - t_1_7 - 2000.000000 s_1_7 > -1992.839235
t_1_4 - t_2_7 - 2000.000000 s_2_7 > -1985.407312
t_2_4 - t_1_7 - 2000.000000 s_1_7 > -1992.839235
t_2_4 - t_2_7 - 2000.000000 s_2_7 > -1985.407312
t_1_8 - t_1_4 - 2000.000000 s_1_4 > -1995.767608
t_1_8 - t_2_4 - 2000.000000 s_2_4 > -1989.935387
t_2_8 - t_1_4 - 2000.000000 s_1_4 > -1995.767608
t_2_8 - t_2_4 - 2000.000000 s_2_4 > -1989.935387
t_1_5 - t_1_1 + 2000.000000 u_1_5_1 - 1.223231 s_1_1 + 1.223231 s_1_6 > 0.678411
t_1_1 - t_1_5 - 2000.000000 u_1_5_1 > -1999.493022
t_2_5 - t_2_1 + 2000.000000 u_2_5_1 - 2.446462 s_2_1 + 2.446462 s_2_6 > 2.731026
t_2_1 - t_2_5 - 2000.000000 u_2_5_1 > -1997.810923
t_1_5 - t_1_2 + 2000.000000 u_1_5_2 - 1.223231 s_1_2 + 1.223231 s_1_7 > 0.803222
t_1_2 - t_1_5 - 2000.000000 u_1_5_2 > -1999.493022
t_2_5 - t_2_2 + 2000.000000 u_2_5_2 - 2.446462 s_2_2 + 2.446462 s_2_7 > 2.751288
t_2_2 - t_2_5 - 2000.000000 u_2_5_2 > -1997.810923
t_1_5 - t_1_3 + 2000.000000 u_1_5_3 - 1.223231 s_1_3 + 1.223231 s_1_7 > 1.013803
t_1_3 - t_1_5 - 2000.000000 u_1_5_3 > -1999.493022
t_2_5 - t_2_3 + 2000.000000 u_2_5_3 - 2.446462 s_2_3 + 2.446462 s_2_7 > 3.766198
t_2_3 - t_2_5 - 2000.000000 u_2_5_3 > -1997.810923
t_1_5 - t_1_4 + 2000.000000 u_1_5_4 - 3.669692 s_1_4 + 3.669692 s_1_3 > 0.562700
t_1_4 - t_1_5 - 2000.000000 u_1_5_4 > -1999.493022
t_2_5 - t_2_4 + 2000.000000 u_2_5_4 - 7.339385 s_2_4 + 7.339385 s_2_3 > 2.725228
t_2_4 - t_2_5 - 2000.000000 u_2_5_4 > -1997.810923
t_1_5 - t_1_6 - 2000.000000 s_1_6 > -1990.396459
t_1_5 - t_2_6 - 2000.000000 s_2_6 > -1976.449398
t_2_5 - t_1_6 - 2000.000000 s_1_6 > -1990.396459
t_2_5 - t_2_6 - 2000.000000 s_2_6 > -1976.449398
t_1_5 - t_1_7 - 2000.000000 s_1_7 > -1992.839235
t_1_5 - t_2_7 - 2000.000000 s_2_7 > -1985.407312
t_2_5 - t_1_7 - 2000.000000 s_1_7 > -1992.839235
t_2_5 - t_2_7 - 2000.000000 s_2_7 > -1985.407312
t_1_8 - t_1_5 - 2000.000000 s_1_5 > -1997.046561
t_1_8 - t_2_5 - 2000.000000 s_2_5 > -1992.918000
t_2_8 - t_1_5 - 2000.000000 s_1_5 > -1997.046561
t_2_8 - t_2_5 - 2000.000000 s_2_5 > -1992.918000
t_1_1 - t_1_6 - 2000.000000 s_1_6 > -1990.396459
t_1_1 - t_2_6 - 2000.000000 s_2_6 > -1976.449398
t_2_1 - t_1_6 - 2000.000000 s_1_6 > -1990.396459
t_2_1 - t_2_6 - 2000.000000 s_2_6 > -1976.449398
t_1_6 - t_1_2 + 2000.000000 u_1_6_2 - 1.223231 s_1_2 + 1.223231 s_1_7 > 0.803222
t_1_2 - t_1_6 - 2000.000000 u_1_6_2 > -1997.760194
t_2_6 - t_2_2 + 2000.000000 u_2_6_2 - 2.446462 s_2_2 + 2.446462 s_2_7 > 2.751288
t_2_2 - t_2_6 - 2000.000000 u_2_6_2 > -1991.176869
t_1_6 - t_1_3 + 2000.000000 u_1_6_3 - 1.223231 s_1_3 + 1.223231 s_1_7 > 1.013803
t_1_3 - t_1_6 - 2000.000000 u_1_6_3 > -1997.760194
t_2_6 - t_2_3 + 2000.000000 u_2_6_3 - 2.446462 s_2_3 + 2.446462 s_2_7 > 3.766198
t_2_3 - t_2_6 - 2000.000000 u_2_6_3 > -1991.176869
t_1_6 - t_1_4 + 2000.000000 u_1_6_4 - 3.669692 s_1_4 + 3.669692 s_1_3 > 0.562700
t_1_4 - t_1_6 - 2000.000000 u_1_6_4 > -1997.760194
t_2_6 - t_2_4 + 2000.000000 u_2_6_4 - 7.339385 s_2_4 + 7.339385 s_2_3 > 2.725228
t_2_4 - t_2_6 - 2000.000000 u_2_6_4 > -1991.176869
t_1_5 - t_1_6 - 2000.000000 s_1_6 > -1990.396459
t_1_5 - t_2_6 - 2000.000000 s_2_6 > -1976.449398
t_2_5 - t_1_6 - 2000.000000 s_1_6 > -1990.396459
t_2_5 - t_2_6 - 2000.000000 s_2_6 > -1976.449398
t_1_6 - t_1_7 + 2000.000000 u_1_6_7 > 1.044611
t_1_7 - t_1_6 - 2000.000000 u_1_6_7 > -1997.760194
t_2_6 - t_2_7 + 2000.000000 u_2_6_7 > 2.360381
t_2_7 - t_2_6 - 2000.000000 u_2_6_7 > -1991.176869
t_1_7 - t_1_1 + 2000.000000 u_1_7_1 - 1.223231 s_1_1 + 1.223231 s_1_6 > 0.678411
t_1_1 - t_1_7 - 2000.000000 u_1_7_1 > -1998.955389
t_2_7 - t_2_1 + 2000.000000 u_2_7_1 - 2.446462 s_2_1 + 2.446462 s_2_6 > 2.731026
t_2_1 - t_2_7 - 2000.000000 u_2_7_1 > -1997.639619
t_1_2 - t_1_7 - 2000.000000 s_1_7 > -1992.839235
t_1_2 - t_2_7 - 2000.000000 s_2_7 > -1985.407312
t_2_2 - t_1_7 - 2000.000000 s_1_7 > -1992.839235
t_2_2 - t_2_7 - 2000.000000 s_2_7 > -1985.407312
t_1_3 - t_1_7 - 2000.000000 s_1_7 > -1992.839235
t_1_3 - t_2_7 - 2000.000000 s_2_7 > -1985.407312
t_2_3 - t_1_7 - 2000.000000 s_1_7 > -1992.839235
t_2_3 - t_2_7 - 2000.000000 s_2_7 > -1985.407312
t_1_4 - t_1_7 - 2000.000000 s_1_7 > -1992.839235
t_1_4 - t_2_7 - 2000.000000 s_2_7 > -1985.407312
t_2_4 - t_1_7 - 2000.000000 s_1_7 > -1992.839235
t_2_4 - t_2_7 - 2000.000000 s_2_7 > -1985.407312
t_1_5 - t_1_7 - 2000.000000 s_1_7 > -1992.839235
t_1_5 - t_2_7 - 2000.000000 s_2_7 > -1985.407312
t_2_5 - t_1_7 - 2000.000000 s_1_7 > -1992.839235
t_2_5 - t_2_7 - 2000.000000 s_2_7 > -1985.407312
t_1_7 - t_1_6 + 2000.000000 u_1_7_6 > 2.239806
t_1_6 - t_1_7 - 2000.000000 u_1_7_6 > -1998.955389
t_2_7 - t_2_6 + 2000.000000 u_2_7_6 > 8.823131
t_2_6 - t_2_7 - 2000.000000 u_2_7_6 > -1997.639619
t_1_8 - t_1_1 - 2000.000000 s_1_1 > -1998.098358
t_1_8 - t_2_1 - 2000.000000 s_2_1 > -1994.822513
t_2_8 - t_1_1 - 2000.000000 s_1_1 > -1998.098358
t_2_8 - t_2_1 - 2000.000000 s_2_1 > -1994.822513
t_1_8 - t_1_2 - 2000.000000 s_1_2 > -1997.973547
t_1_8 - t_2_2 - 2000.000000 s_2_2 > -1994.802250
t_2_8 - t_1_2 - 2000.000000 s_1_2 > -1997.973547
t_2_8 - t_2_2 - 2000.000000 s_2_2 > -1994.802250
t_1_8 - t_1_3 - 2000.000000 s_1_3 > -1997.762966
t_1_8 - t_2_3 - 2000.000000 s_2_3 > -1993.787341
t_2_8 - t_1_3 - 2000.000000 s_1_3 > -1997.762966
t_2_8 - t_2_3 - 2000.000000 s_2_3 > -1993.787341
t_1_8 - t_1_4 - 2000.000000 s_1_4 > -1995.767608
t_1_8 - t_2_4 - 2000.000000 s_2_4 > -1989.935387
t_2_8 - t_1_4 - 2000.000000 s_1_4 > -1995.767608
t_2_8 - t_2_4 - 2000.000000 s_2_4 > -1989.935387
t_1_8 - t_1_5 - 2000.000000 s_1_5 > -1997.046561
t_1_8 - t_2_5 - 2000.000000 s_2_5 > -1992.918000
t_2_8 - t_1_5 - 2000.000000 s_1_5 > -1997.046561
t_2_8 - t_2_5 - 2000.000000 s_2_5 > -1992.918000
Binary
s_1_1
s_2_1
s_1_2
s_2_2
s_1_3
s_2_3
s_1_4
s_2_4
s_1_5
s_2_5
s_1_6
s_2_6
s_1_7
s_2_7
s_1_8
s_2_8
u_1_1_2
u_2_1_2
u_1_1_3
u_2_1_3
u_1_1_4
u_2_1_4
u_1_1_5
u_2_1_5
u_1_1_7
u_2_1_7
u_1_2_1
u_2_2_1
u_1_2_3
u_2_2_3
u_1_2_4
u_2_2_4
u_1_2_5
u_2_2_5
u_1_2_6
u_2_2_6
u_1_3_1
u_2_3_1
u_1_3_2
u_2_3_2
u_1_3_5
u_2_3_5
u_1_3_6
u_2_3_6
u_1_4_1
u_2_4_1
u_1_4_2
u_2_4_2
u_1_4_5
u_2_4_5
u_1_4_6
u_2_4_6
u_1_5_1
u_2_5_1
u_1_5_2
u_2_5_2
u_1_5_3
u_2_5_3
u_1_5_4
u_2_5_4
u_1_6_2
u_2_6_2
u_1_6_3
u_2_6_3
u_1_6_4
u_2_6_4
u_1_6_7
u_2_6_7
u_1_7_1
u_2_7_1
u_1_7_6
u_2_7_6

End
